NAME : tsp40_17.183.tour
COMMENT : Length = 183
COMMENT : Found by LKH [Keld Helsgaun]
TYPE : TOUR
DIMENSION : 40
TOUR_SECTION
1
17
34
28
29
18
37
35
12
8
25
39
2
19
16
3
30
23
38
11
20
36
6
4
10
9
40
31
22
32
21
27
15
5
26
14
13
33
7
24
-1
EOF
